CMD:
./solvers/bin/cadical --plain --no-reduce -t 1600 ./data/cnfs//zipcpu-pfcache-p01/zipcpu-pfcache-p01.84.cnf

c --- [ banner ] -------------------------------------------------------------
c 
c CaDiCaL SAT Solver
c Copyright (c) 2016-2024
c A. Biere, M. Fleury, N. Froleyks, K. Fazekas, F. Pollitt, T. Faller
c JKU Linz, University of Freiburg, TU Wien
c 
c Version 2.1.3 5296d3d2a9bf48c154ab2acb5e44625776d821bf
c g++ (Gentoo 12.3.1_p20230526 p2) 12.3.1 20230526 -Wall -Wextra -O3 -DNDEBUG
c Sat Aug 9 07:26:21 PDT 2025 Linux cedar2.int.cedar.computecanada.ca 5.14.0-362.24.2.el9_3.x86_64 x86_64
c 
c --- [ limit ] --------------------------------------------------------------
c 
c setting time limit to 1600 seconds real time (due to '-t 1600')
c 
c --- [ parsing input ] ------------------------------------------------------
c 
c reading DIMACS file from './data/cnfs//zipcpu-pfcache-p01/zipcpu-pfcache-p01.84.cnf'
c opening file to read './data/cnfs//zipcpu-pfcache-p01/zipcpu-pfcache-p01.84.cnf'
c found 'p cnf 1718592 5132901' header
c parsed 5132901 clauses in 0.78 seconds process time
c 
c --- [ options ] ------------------------------------------------------------
c 
c   --compact=false                (different from default 'true')
c   --decompose=false              (different from default 'true')
c   --deduplicate=false            (different from default 'true')
c   --elim=false                   (different from default 'true')
c   --probe=false                  (different from default 'true')
c   --reduce=false                 (different from default 'true')
c   --subsume=false                (different from default 'true')
c   --ternary=false                (different from default 'true')
c   --transred=false               (different from default 'true')
c   --vivify=false                 (different from default 'true')
c 
c --- [ solving ] ------------------------------------------------------------
c 
c time measured in process time since initialization
c 
c  seconds   reductions  redundant   irredundant
c          MB    restarts       trail         variables
c           level   conflicts       glue            remaining
c 
c *  0.78 786  0 0   0    0    0  0% 0 5099270 1705087 99%
c {  0.99 816  0 0   0    0    0  0% 0 5099270 1705087 99%
c i  1.01 817  1 0   0    1    0  1% 0 5099270 1527452 89%
c i  1.01 817  1 0   0    2    0  6% 0 5099270 1526375 89%
c i  1.05 818 1006 0   0   10    6 15% 3 5099270 1518743 88%
c i  1.18 818 738 0   5   63   47 18% 8 5099270 1518503 88%
c i  1.21 818 523 0   8   87   68 17% 6 5099270 1518485 88%
c i  1.21 818 487 0   8   94   73 17% 5 5099270 1518467 88%
c i  1.22 818 429 0   8  106   84 16% 5 5099270 1518449 88%
c i  1.24 819 426 0   8  113   90 16% 5 5099270 1518439 88%
c i  1.68 824 1191 0  15  376  239 29% 4 5099270 1518417 88%
c i  1.68 824 1187 0  15  377  239 29% 4 5099270 1518234 88%
c i  1.68 824 1183 0  15  378  239 29% 4 5099270 1518216 88%
c i  1.68 824 1164 0  15  383  241 28% 4 5099270 1518187 88%
c i  1.69 824 1156 0  15  385  242 28% 4 5099270 1518169 88%
c i  1.70 824 1033 0  17  422  276 27% 4 5099270 1517917 88%
c i  1.70 824 1030 0  17  423  276 27% 4 5099270 1517898 88%
c i  1.82 825 783 0  28  583  424 25% 4 5099270 1517051 88%
c i  1.82 825 781 0  28  593  432 25% 4 5099270 1517033 88%
c i  1.83 825 724 0  28  642  475 24% 3 5099270 1517032 88%
c 
c  seconds    reductions  redundant   irredundant
c          MB     restarts       trail         variables
c            level   conflicts       glue            remaining
c 
c i  1.83 825 722 0  28  643  475 24% 3 5099270 1515742 88%
c i  1.84 825 716 0  28  651  478 24% 3 5099270 1512704 88%
c i  1.84 825 715 0  28  652  478 24% 3 5099270 1512074 88%
c i  1.84 825 714 0  28  653  478 24% 3 5099270 1504772 88%
c }  1.84 825 651 0  28  710  516 23% 3 5099270 1504768 88%
c 0  1.84 825 651 0  28  710  516 23% 3 5099270 1504768 88%
c 
c --- [ result ] -------------------------------------------------------------
c 
s UNSATISFIABLE
c 
c --- [ run-time profiling ] -------------------------------------------------
c 
c process time taken by individual solving procedures
c (percentage relative to process time for solving)
c 
c         1.06   99.99% search
c         0.85   79.65% unstable
c         0.78   72.90% parse
c         0.22   20.34% lucky
c         0.00    0.00% simplify
c   =================================
c         1.06   57.82% solve
c 
c last line shows process time for solving
c (percentage relative to total process time)
c 
c --- [ statistics ] ---------------------------------------------------------
c 
c chronological:               363        51.13 %  of conflicts
c conflicts:                   710       667.03    per second
c decisions:                 18561     17437.57    per second
c fixed:                    213821        12.44 %  of all variables
c learned:                     617        86.90 %  per conflict
c learned_lits:               6439       100.00 %  learned literals
c minimized:                     0         0.00 %  learned literals
c shrunken:                   1450        22.52 %  learned literals
c minishrunken:                524         8.14 %  learned literals
c otfs:                          3         0.42 %  of conflict
c propagations:           10302695         9.68 M  per second
c restarts:                     28        25.36    interval
c subsumed:                     77         0.00 %  of all clauses
c strengthened:                  3         0.00 %  of all clauses
c 
c seconds are measured in process time for solving
c 
c --- [ resources ] ----------------------------------------------------------
c 
c total process time since initialization:         1.84    seconds
c total real time since initialization:            1.85    seconds
c maximum resident set size of process:          823.47    MB
c 
c --- [ shutting down ] ------------------------------------------------------
c 
c exit 20
